output ["x1 = ",showDzn(x1),";\n","x2 = ",showDzn(x2),";\n","x3 = ",showDzn(x3),";\n","x4 = ",showDzn(x4),";\n","x5 = ",showDzn(x5),";\n","x6 = ",showDzn(x6),";\n","x7 = ",showDzn(x7),";\n","x8 = ",showDzn(x8),";\n"];
float: x8;
float: x7;
float: x6;
float: x5;
float: x4;
float: x3;
float: x2;
float: x1;
